Au  O  C 
 1.0000000000000000
     5.8746714223690848    0.0000000000000000    0.0000000000000000
     2.9373357111845424    5.0876146906580884    0.0000000000000000
     0.0000000000000000    0.0000000000000000   24.7966491304381798
  12   1   1
Selective dynamics
Cartesian
  1.4686678555922503  0.8479357817763360 10.0000000000000657   F   F   F
  4.4060035667767927  0.8479357817763360 10.0000000000000657   F   F   F
  2.9373357111845215  3.3917431271053804 10.0000000000000657   F   F   F
  5.8746714223690644  3.3917431271053804 10.0000000000000657   F   F   F
  5.8746716303788649  1.6958718158960386 12.3632460647199274   T   T   T
  2.9373368428754874  1.6958715485063365 12.3632463852910970   T   T   T
  7.3433392254493821  4.2396795708860475 12.3632464184097888   T   T   T
  4.4060039963668283  4.2396792383797193 12.3632460151209749   T   T   T
  0.0000003268629479 -0.0000002965771966 14.7258089666738190   T   T   T
  2.9373361254225143 -0.0000003138034071 14.7258123288309157   T   T   T
  1.4686681608765821  2.5438081595746742 14.7258084750160894   T   T   T
  4.4060022718849146  2.5438071487541958 14.7258095436858252   T   T   T
  1.4038507426923943 -0.0250376738185743 17.2768748723845569   T   T   T
  1.4648731911804840 -0.0085661117679447 16.1282726505409535   T   T   T
