Au  O  C                                
   1.00000000000000     
     5.8746714223690848    0.0000000000000000    0.0000000000000000
     2.9373357111845424    5.0876146906580884    0.0000000000000000
     0.0000000000000000    0.0000000000000000   24.7966491304381798
   Au   O    C 
    12     1     1
Selective dynamics
Direct
  0.1666666666666643  0.1666666666666643  0.4032802959543815   F   F   F
  0.6666666666666643  0.1666666666666643  0.4032802959543815   F   F   F
  0.1666666666666643  0.6666666666666643  0.4032802959543815   F   F   F
  0.6666666666666643  0.6666666666666643  0.4032802959543815   F   F   F
  0.8345543351063275  0.3311457191363346  0.4979638218341166   T   T   T
  0.3314898282686979  0.3311918369001418  0.4979321901038944   T   T   T
  0.8324348195859049  0.8318191997848409  0.4999377190539372   T   T   T
  0.3315069327393855  0.8342746978210643  0.4979420609933188   T   T   T
 -0.0084174735811646  0.9901574078802877  0.5955908139683631   T   T   T
  0.5086705240581436  0.9917354885702274  0.5961323196980591   T   T   T
  0.9937253843120772  0.5060413297562060  0.5962160491802597   T   T   T
  0.4981064774450733  0.4969692801441113  0.5910136731552175   T   T   T
  0.1630803777496391  0.1576441528602361  0.6972582810514890   T   T   T
  0.1615131191162619  0.1561965369337706  0.6494892920378356   T   T   T
 
  0.00000000E+00  0.00000000E+00  0.00000000E+00
  0.00000000E+00  0.00000000E+00  0.00000000E+00
  0.00000000E+00  0.00000000E+00  0.00000000E+00
  0.00000000E+00  0.00000000E+00  0.00000000E+00
  0.00000000E+00  0.00000000E+00  0.00000000E+00
  0.00000000E+00  0.00000000E+00  0.00000000E+00
  0.00000000E+00  0.00000000E+00  0.00000000E+00
  0.00000000E+00  0.00000000E+00  0.00000000E+00
  0.00000000E+00  0.00000000E+00  0.00000000E+00
  0.00000000E+00  0.00000000E+00  0.00000000E+00
  0.00000000E+00  0.00000000E+00  0.00000000E+00
  0.00000000E+00  0.00000000E+00  0.00000000E+00
  0.00000000E+00  0.00000000E+00  0.00000000E+00
  0.00000000E+00  0.00000000E+00  0.00000000E+00
