Au                                      
   1.00000000000000     
     5.8746714223690848    0.0000000000000000    0.0000000000000000
     2.9373357111845424    5.0876146906580884    0.0000000000000000
     0.0000000000000000    0.0000000000000000   24.7966491304381798
   Au
    12
Selective dynamics
Direct
  0.1666666666666643  0.1666666666666643  0.4032802959543815   F   F   F
  0.6666666666666643  0.1666666666666643  0.4032802959543815   F   F   F
  0.1666666666666643  0.6666666666666643  0.4032802959543815   F   F   F
  0.6666666666666643  0.6666666666666643  0.4032802959543815   F   F   F
  0.8333333439414642  0.3333333829328722  0.4985853531937062   T   T   T
  0.3333335274510776  0.3333333303758846  0.4985853661217098   T   T   T
  0.8333332593342434  0.8333334634540966  0.4985853674573214   T   T   T
  0.3333333740767640  0.8333333980980608  0.4985853511934782   T   T   T
  0.0000000847863372 -0.0000000582939579  0.5938628598247864   T   T   T
  0.5000001013524691 -0.0000000616798689  0.5938629954139573   T   T   T
 -0.0000000280561432  0.5000001600446731  0.5938628399971989   T   T   T
  0.4999997988995005  0.4999999613620802  0.5938628830945436   T   T   T
 
  0.00000000E+00  0.00000000E+00  0.00000000E+00
  0.00000000E+00  0.00000000E+00  0.00000000E+00
  0.00000000E+00  0.00000000E+00  0.00000000E+00
  0.00000000E+00  0.00000000E+00  0.00000000E+00
  0.00000000E+00  0.00000000E+00  0.00000000E+00
  0.00000000E+00  0.00000000E+00  0.00000000E+00
  0.00000000E+00  0.00000000E+00  0.00000000E+00
  0.00000000E+00  0.00000000E+00  0.00000000E+00
  0.00000000E+00  0.00000000E+00  0.00000000E+00
  0.00000000E+00  0.00000000E+00  0.00000000E+00
  0.00000000E+00  0.00000000E+00  0.00000000E+00
  0.00000000E+00  0.00000000E+00  0.00000000E+00
