Au  O  C                                
   1.00000000000000     
     5.8746714223690848    0.0000000000000000    0.0000000000000000
     2.9373357111845424    5.0876146906580884    0.0000000000000000
     0.0000000000000000    0.0000000000000000   24.7966491304381798
   Au   O    C 
    12     1     1
Selective dynamics
Direct
  0.1666666666666643  0.1666666666666643  0.4032802959543815   F   F   F
  0.6666666666666643  0.1666666666666643  0.4032802959543815   F   F   F
  0.1666666666666643  0.6666666666666643  0.4032802959543815   F   F   F
  0.6666666666666643  0.6666666666666643  0.4032802959543815   F   F   F
  0.8340293354112480  0.3325239783973265  0.4985111845731586   T   T   T
  0.3338618221825054  0.3325555809989479  0.4984506156498283   T   T   T
  0.8340583154746118  0.8324893882248876  0.4985075100664654   T   T   T
  0.3334141959269202  0.8327612298638031  0.4983577969188414   T   T   T
  0.0006531824540110 -0.0010810105877234  0.5939225758298310   T   T   T
  0.5009337886610267 -0.0017868020206222  0.5935059973393768   T   T   T
  0.0012805708074040  0.4986284465687827  0.5940096370996261   T   T   T
  0.5008772635809569  0.4993387699110659  0.5934121756905345   T   T   T
  0.4833708590971066  0.2694310875949072  0.7232890328470780   T   T   T
  0.4342186219521982  0.2454406000331296  0.7667987694490130   T   T   T
 
  0.00000000E+00  0.00000000E+00  0.00000000E+00
  0.00000000E+00  0.00000000E+00  0.00000000E+00
  0.00000000E+00  0.00000000E+00  0.00000000E+00
  0.00000000E+00  0.00000000E+00  0.00000000E+00
  0.00000000E+00  0.00000000E+00  0.00000000E+00
  0.00000000E+00  0.00000000E+00  0.00000000E+00
  0.00000000E+00  0.00000000E+00  0.00000000E+00
  0.00000000E+00  0.00000000E+00  0.00000000E+00
  0.00000000E+00  0.00000000E+00  0.00000000E+00
  0.00000000E+00  0.00000000E+00  0.00000000E+00
  0.00000000E+00  0.00000000E+00  0.00000000E+00
  0.00000000E+00  0.00000000E+00  0.00000000E+00
  0.00000000E+00  0.00000000E+00  0.00000000E+00
  0.00000000E+00  0.00000000E+00  0.00000000E+00
