Au  O  C                                
   1.00000000000000     
     5.8746714223690848    0.0000000000000000    0.0000000000000000
     2.9373357111845424    5.0876146906580884    0.0000000000000000
     0.0000000000000000    0.0000000000000000   24.7966491304381798
   Au   O    C 
    12     1     1
Selective dynamics
Direct
  0.1666666666666643  0.1666666666666643  0.4032802959543815   F   F   F
  0.6666666666666643  0.1666666666666643  0.4032802959543815   F   F   F
  0.1666666666666643  0.6666666666666643  0.4032802959543815   F   F   F
  0.6666666666666643  0.6666666666666643  0.4032802959543815   F   F   F
  0.8336277759901712  0.3332499505226696  0.4982719256874047   T   T   T
  0.3332581194422518  0.3334289309492905  0.4990579852066075   T   T   T
  0.8335286931123347  0.8332319358454854  0.4980472905770995   T   T   T
  0.3333247879075324  0.8334442352018535  0.4983771527019967   T   T   T
  0.0002784629387306 -0.0000551557051123  0.5939525951047159   T   T   T
  0.5015282203698421 -0.0022754078923726  0.5936110992748151   T   T   T
 -0.0017436100835986  0.5012025151984100  0.5938154855525313   T   T   T
  0.5009796143627828  0.5008284378866671  0.5936251451157365   T   T   T
  0.3635795445919762  0.3039990937240395  0.7261432731638264   T   T   T
  0.3245528436863375  0.3737292542194823  0.7700338190208800   T   T   T
 
  0.00000000E+00  0.00000000E+00  0.00000000E+00
  0.00000000E+00  0.00000000E+00  0.00000000E+00
  0.00000000E+00  0.00000000E+00  0.00000000E+00
  0.00000000E+00  0.00000000E+00  0.00000000E+00
  0.00000000E+00  0.00000000E+00  0.00000000E+00
  0.00000000E+00  0.00000000E+00  0.00000000E+00
  0.00000000E+00  0.00000000E+00  0.00000000E+00
  0.00000000E+00  0.00000000E+00  0.00000000E+00
  0.00000000E+00  0.00000000E+00  0.00000000E+00
  0.00000000E+00  0.00000000E+00  0.00000000E+00
  0.00000000E+00  0.00000000E+00  0.00000000E+00
  0.00000000E+00  0.00000000E+00  0.00000000E+00
  0.00000000E+00  0.00000000E+00  0.00000000E+00
  0.00000000E+00  0.00000000E+00  0.00000000E+00
