Au                                      
   1.00000000000000     
     4.1540181053165348    0.0000001731683029   -0.0000000255927171
     0.0000001734554922    4.1540178258356564    0.0000000532578771
    -0.0000000255559876    0.0000000533558110    4.1540180888242908
   Au
     4
Direct
 -0.0000000092997501 -0.0000000141059990  0.0000000137265657
  0.4999999967576459  0.4999999957369846 -0.0000000101424568
  0.4999999992501295  0.0000000263140933  0.4999999926984288
  0.0000000132919747  0.4999999920549212  0.5000000037174622
 
  0.00000000E+00  0.00000000E+00  0.00000000E+00
  0.00000000E+00  0.00000000E+00  0.00000000E+00
  0.00000000E+00  0.00000000E+00  0.00000000E+00
  0.00000000E+00  0.00000000E+00  0.00000000E+00
