 O  C                                   
   1.00000000000000     
    20.0000000000000000    0.0000000000000000    0.0000000000000000
     0.0000000000000000   20.0000000000000000    0.0000000000000000
     0.0000000000000000    0.0000000000000000   21.1503399999999999
   O    C 
     1     1
Direct
  0.4999999998047274  0.5000000000397237  0.5270327471281616
  0.5000000001952726  0.4999999999602763  0.4729672528718384
 
  0.00000000E+00  0.00000000E+00  0.00000000E+00
  0.00000000E+00  0.00000000E+00  0.00000000E+00
