Au  O  C                                
   1.00000000000000     
     5.8746714223690848    0.0000000000000000    0.0000000000000000
     2.9373357111845424    5.0876146906580884    0.0000000000000000
     0.0000000000000000    0.0000000000000000   24.7966491304381798
   Au   O    C 
    12     1     1
Selective dynamics
Direct
  0.1666666666666643  0.1666666666666643  0.4032802959543815   F   F   F
  0.6666666666666643  0.1666666666666643  0.4032802959543815   F   F   F
  0.1666666666666643  0.6666666666666643  0.4032802959543815   F   F   F
  0.6666666666666643  0.6666666666666643  0.4032802959543815   F   F   F
  0.8355845614591865  0.3327827141741085  0.4982745785191386   T   T   T
  0.3303206705300651  0.3328714114315591  0.4982675819953608   T   T   T
  0.8278188746042928  0.8429374106577937  0.5004167551524301   T   T   T
  0.3327545065424020  0.8333572422584015  0.4990669158461483   T   T   T
 -0.0049905883836937  0.9905533487444877  0.5987854732154496   T   T   T
  0.5117087691185452  0.9908049273523498  0.5988648223428356   T   T   T
  0.9970298418615959  0.5035844688022668  0.5927763371974859   T   T   T
  0.5080197538060671  0.4817496480582474  0.5916899469725386   T   T   T
  0.2448352125079259  0.0078480911498397  0.7053105290281709   T   T   T
  0.2457861456402039  0.0052107121574854  0.6579536148489551   T   T   T
 
  0.00000000E+00  0.00000000E+00  0.00000000E+00
  0.00000000E+00  0.00000000E+00  0.00000000E+00
  0.00000000E+00  0.00000000E+00  0.00000000E+00
  0.00000000E+00  0.00000000E+00  0.00000000E+00
  0.00000000E+00  0.00000000E+00  0.00000000E+00
  0.00000000E+00  0.00000000E+00  0.00000000E+00
  0.00000000E+00  0.00000000E+00  0.00000000E+00
  0.00000000E+00  0.00000000E+00  0.00000000E+00
  0.00000000E+00  0.00000000E+00  0.00000000E+00
  0.00000000E+00  0.00000000E+00  0.00000000E+00
  0.00000000E+00  0.00000000E+00  0.00000000E+00
  0.00000000E+00  0.00000000E+00  0.00000000E+00
  0.00000000E+00  0.00000000E+00  0.00000000E+00
  0.00000000E+00  0.00000000E+00  0.00000000E+00
